db/data/27315820211891952531216130731884125102.z3.out
-------------------
2500.114018621
